88
0 19 72 2 70 24 14 40 80 67 
79 36 16 21 77 48 76 47 56 85 
78 46 57 18 75 52 33 25 5 61 
11 38 9 23 69 60 74 58 29 22 
44 83 66 31 26 65 49 63 50 12 
4 84 39 43 54 32 64 15 6 30 
35 13 62 59 68 71 45 1 7 73 
27 51 87 86 37 8 55 17 28 82 
20 41 42 53 3 10 34 81 
